c array.sh: path:     /home/seidl/data/parity/parity70.qdimacs
c array.sh: name:     parity70
c array.sh: task:     2
c array.sh: host:     c3n01
c array.sh: uname:    Linux c3n01 4.15.0-135-generic #139-Ubuntu SMP Mon Jan 18 17:38:24 UTC 2021 x86_64 x86_64 x86_64 GNU/Linux
c array.sh: start:    Tue Feb 16 22:30:17 CET 2021
c array.sh: noturbo:  1
c array.sh: governor: 32 performance
c array.sh: tmp:      1%
c array.sh: unzipped: /tmp/local-unzipped-18834717-2-parity70.cnf
using tmp directory:
  /tmp
running QBF solver...

/home/seidl/cert_tests/bin/ferp-models/ijtihad/ijtihad --dependencies=0 --wit_per_call=-1 --cex_per_call=-1 --log_phi=/tmp/ferpcert3147expanded.cnf /tmp/local-unzipped-18834717-2-parity70.cnf
c Options after parsing: 
c cex_per_call = 18446744073709551615
c wit_per_call = 18446744073709551615
c warmup = 1
c warmup_randoms = 0
c trimming_phi = 0
c trimming_ksi = 2
c trimming_interval = 200
c memory_limit = 3000000
c MySolverv970-glucose
-1 
1 
c Number of calls is: 0
c Layers in PHI: 0
c Layers in KSI: 0
c Running Ijtihad loop
c sat_solver_phi calld 0 times, running for 0.018562 seconds.
c number of layers in PHI is 2
c sat_solver_ksi was running for 0 seconds.
c number of layers in KSI is 0
c mysolver was running for 0.020195 seconds.
s cnf 0
solving done with exit code 20

QBF solver OK

running SAT Solver...

/tmp/ferpcert3147expanded.cnf
s UNSATISFIABLE

PROOF GENERATION OK

checking unsat proof

resolved 1 root and 1 empty clause
trace-size2: 208863

TRACE CHECK OK

running toferp...

ferp-size: 214513
TOFERP OK

checking FERP PROOF...

FERP CHECK OK

extracting AIG ...

aig-size: 8018356
aig-header: aag 391479 139 0 1 391340
FERP CERT OK

merging  AIG into QBF ...

CERTCHECK OK

merged-cnf-header: p cnf 392451 1176515
merged-cnf-size: 22283103
running SAT solver...

c ---- [ banner ] ------------------------------------------------------------
c
c KISSAT SAT Solver
c Copyright (c) 2019-2020 Armin Biere JKU Linz
c 
c Version 1.0.3 59813addcacc4d6fb880ebdd63685600475aa940
c gcc (Ubuntu 7.5.0-3ubuntu1~18.04) 7.5.0 -W -Wall -O3 -DNEMBEDDED -DNDEBUG -DNMETRICS -DNSTATISTICS
c Sun Feb 14 23:58:54 CET 2021 Linux cluster3 4.15.0-135-generic x86_64
c
c ---- [ parsing ] -----------------------------------------------------------
c
c opened and reading DIMACS file:
c 
c   /tmp/ferpcert_merged_cnf3147.cnf
c 
c parsed 'p cnf 392451 1176515' header
c closing input after reading 22283103 bytes (21 MB)
c finished parsing after 0.32 seconds
c
c ---- [ solving ] -----------------------------------------------------------
c
c  seconds reductions redundant irredundant
c         MB   restarts    trail        variables
c          level  conflicts   glue            remaining
c
c *  0.32 58 0  0  0   0   0 0% 0 1176513 391755 100%
c {  0.32 58 0  0  0   0   0 0% 0 1176513 391755 100%
c i  0.99 65 73  0  0 208 203 89% 11 1176513 391753 100%
c i  1.00 66 127  0  0 222 204 81% 11 1176513 391752 100%
c -  1.07 66 401  1  0 300 186 66% 8 1175395 391752 100%
c i  1.08 66 367  1  0 327 210 60% 8 1175395 391751 100%
c i  1.18 66 274  1  0 500 374 40% 6 1175395 391750 100%
c i  1.26 66 304  1  0 718 575 41% 5 1175395 391748 100%
c i  1.27 66 287  1  0 807 654 39% 5 1175395 391747 100%
c -  1.31 67 269  2  0 902 681 38% 4 1175381 391747 100%
c }  1.33 67 232  2  0 1001 776 33% 4 1175381 391747 100%
c [  1.33 67 0  2  0 1001 776 0% 0 1175381 391747 100%
c O  1.47 67 56  2  0 1002 777 99% 16 1175102 391747 100%
c i  1.53 68 104  2  0 1040 813 69% 5 1175102 391746 100%
c i  1.55 68 94  2  0 1105 877 75% 3 1175102 391745 100%
c i  1.60 68 490  2  0 1209 972 53% 3 1175102 391744 100%
c i  1.68 68 631  2  0 1314 1064 52% 3 1175102 391742 100%
c i  1.80 69 609  2  0 1536 1270 52% 5 1175102 391741 100%
c i  1.83 69 617  2  0 1572 1304 54% 5 1175102 391740 100%
c -  1.99 69 548  3  0 1802 1325 62% 5 1175082 391740 100%
c
c  seconds   reductions  redundant   irredundant
c         MB     restarts       trail        variables
c           level   conflicts      glue            remaining
c
c i  2.41 69 432  3  1 2305 1790 67% 9 1175082 391739 100%
c ]  2.44 69 428  3  1 2335 1819 67% 9 1175082 391739 100%
c {  2.44 69 232  3  1 2335 1819 33% 4 1175082 391739 100%
c i  2.50 70 220  3 26 2374 1854 32% 5 1175082 391738 100%
c i  2.52 70 216  3 40 2392 1871 31% 5 1175082 391737 100%
c i  2.54 70 215  3 40 2417 1895 31% 5 1175082 391735 100%
c i  2.58 70 221  3 40 2458 1933 32% 4 1175082 391734 100%
c i  2.58 70 222  3 40 2467 1939 33% 4 1175082 391733 100%
c i  2.60 70 225  3 40 2488 1957 33% 4 1175082 391732 100%
c i  2.63 70 234  3 40 2554 2012 35% 4 1175082 391731 100%
c i  2.65 70 238  3 40 2580 2032 36% 4 1175082 391730 100%
c i  2.65 70 239  3 40 2588 2039 36% 4 1175082 391729 100%
c i  2.67 70 243  3 40 2625 2068 37% 4 1175082 391728 100%
c i  2.69 70 251  3 40 2693 2131 39% 4 1175082 391727 100%
c i  2.79 70 271  3 40 2909 2325 44% 4 1175082 391725 100%
c i  2.80 70 272  3 40 2915 2330 44% 4 1175082 391721 100%
c i  2.80 70 272  3 40 2917 2331 44% 4 1175082 391714 100%
c i  2.82 70 276  3 40 2969 2377 45% 4 1175082 391713 100%
c i  2.82 70 276  3 40 2972 2379 45% 4 1175082 391712 100%
c i  2.83 70 277  3 40 2982 2387 45% 4 1175082 391711 100%
c
c  seconds   reductions  redundant   irredundant
c         MB     restarts       trail        variables
c           level   conflicts      glue            remaining
c
c i  2.83 70 278  3 40 2998 2402 46% 4 1175082 391710 100%
c -  2.87 70 278  4 40 3002 1997 46% 4 1174988 391710 100%
c I  2.87 70 278  4 40 3004 1997 46% 4 1174988 391710 100%
c i  2.88 70 269  4 40 3047 2031 44% 4 1174988 391709 100%
c i  2.89 70 264  4 40 3067 2044 44% 4 1174988 391708 100%
c i  2.90 70 261  4 40 3079 2053 43% 4 1174988 391707 100%
c i  2.97 70 217  4 42 3327 2279 39% 4 1174988 391706 100%
c i  2.97 70 216  4 42 3333 2284 39% 4 1174988 391705 100%
c i  2.99 70 198  4 42 3428 2376 36% 4 1174988 391704 100%
c i  3.02 70 193  4 42 3512 2446 36% 4 1174988 391703 100%
c d  3.12 70 190  4 42 3600 2473 36% 4 1174858 391644 100%
c d  3.20 73 190  4 42 3600 2473 36% 4 1174719 391588 100%
c 3  3.36 71 190  4 42 3600 8281 36% 4 1174719 391588 100%
c t  3.39 71 190  4 42 3600 8281 36% 4 1174015 391435 100%
c f  4.16 78 190  4 42 3600 214064 36% 4 1173973 390293 99%
c f  4.19 78 190  4 42 3600 214041 36% 4 1173726 390292 99%
c u  4.38 79 190  4 42 3600 213981 36% 4 1173726 390292 99%
c v  4.47 79 190  4 42 3600 213946 36% 4 1173726 390292 99%
c w  5.39 81 190  4 42 3600 224939 36% 4 1173695 390230 99%
c d  5.50 80 190  4 42 3600 218037 36% 4 1161620 384067 98%
c
c  seconds   reductions   redundant    irredundant
c         MB     restarts         trail        variables
c           level   conflicts        glue            remaining
c
c d  5.59 80 190  4 42 3600 218015 36% 4 1161520 384016 98%
c i  5.60 80 190  4 42 3600 218015 36% 4 1161520 384016 98%
c i  5.60 80 190  4 42 3601 218015 36% 4 1161520 384014 98%
c i  5.71 81 185  4 42 3726 218123 37% 3 1161520 384013 98%
c i  5.74 81 184  4 42 3732 218128 37% 3 1161520 384011 98%
c i  5.75 81 184  4 42 3744 218138 37% 3 1161520 384009 98%
c i  5.82 81 172  4 48 3976 218356 34% 3 1161520 384008 98%
c i  5.84 81 168  4 48 4044 218423 34% 3 1161520 384007 98%
c i  5.84 81 168  4 48 4046 218424 34% 3 1161520 384006 98%
c i  5.85 81 168  4 48 4060 218436 34% 3 1161520 384005 98%
c i  5.88 81 163  4 48 4130 218499 33% 3 1161520 384004 98%
c }  5.93 81 154  4 48 4336 218694 32% 3 1161520 384004 98%
c [  5.93 81 428  4 48 4336 218694 67% 9 1161520 384004 98%
c -  6.05 81 389  5 48 4503 14525 65% 8 1157598 384004 98%
c i  6.13 81 325  5 48 4721 14717 56% 7 1157598 384003 98%
c i  6.25 81 296  5 48 4882 14872 55% 7 1157598 384002 98%
c i  6.27 81 289  5 48 4984 14967 57% 7 1157598 384000 98%
c i  6.28 81 287  5 48 5013 14993 57% 7 1157598 383999 98%
c i  6.61 81 229  5 49 5582 15521 51% 7 1157598 383998 98%
c i  6.61 81 229  5 49 5591 15529 51% 7 1157598 383997 98%
c
c  seconds   reductions   redundant   irredundant
c         MB     restarts        trail        variables
c           level   conflicts       glue            remaining
c
c i  6.65 81 223  5 49 5703 15632 51% 7 1157598 383996 98%
c ]  6.82 81 215  5 49 5953 15850 50% 6 1157598 383996 98%
c {  6.82 81 154  5 49 5953 15850 32% 3 1157598 383996 98%
c i  6.83 81 152  5 64 5991 15884 31% 3 1157598 383994 98%
c a  6.94 81 151  5 64 6006 15824 31% 3 1157523 383982 98%
c B  6.98 81 151  5 64 6007 15825 31% 3 1157523 383982 98%
c i  7.04 81 151  5 82 6034 15851 31% 4 1157523 383980 98%
c i  7.10 81 150  5 97 6064 15880 31% 4 1157523 383978 98%
c i  7.14 81 149  5 102 6078 15890 31% 4 1157523 383973 98%
c i  7.19 81 147  5 120 6123 15929 30% 4 1157523 383972 98%
c i  7.20 81 146  5 124 6134 15939 30% 4 1157523 383969 98%
c i  7.24 81 145  5 127 6149 15953 30% 4 1157523 383967 98%
c i  7.24 81 145  5 128 6153 15956 30% 4 1157523 383966 98%
c i  7.24 81 145  5 128 6155 15957 30% 4 1157523 383964 98%
c -  7.36 81 138  6 128 6303 3881 30% 3 1157475 383964 98%
c i  7.37 81 135  6 128 6348 3923 29% 3 1157475 383963 98%
c i  7.41 81 134  6 128 6377 3951 29% 3 1157475 383961 98%
c i  7.42 81 134  6 128 6381 3954 29% 3 1157475 383960 98%
c i  7.50 81 131  6 137 6446 4016 29% 3 1157475 383958 98%
c i  7.69 81 110  6 139 6896 4444 26% 3 1157475 383957 98%
c
c  seconds   reductions   redundant   irredundant
c         MB     restarts        trail        variables
c           level    conflicts      glue            remaining
c
c i  7.77 81 109  6 139 6988 4527 26% 3 1157475 383956 98%
c i  7.86 81 111  6 140 7157 4670 27% 3 1157475 383955 98%
c i  7.87 81 111  6 140 7168 4678 27% 3 1157475 383953 98%
c i  7.92 81 110  6 140 7225 4729 27% 3 1157475 383951 98%
c i  7.93 81 110  6 140 7234 4737 27% 3 1157475 383950 98%
c i  8.12 81 109  6 152 7341 4836 27% 3 1157475 383949 98%
c i  8.30 81 108  6 160 7513 4997 28% 3 1157475 383948 98%
c i  8.44 81 104  6 164 7764 5230 27% 3 1157475 383947 98%
c i  8.46 81 103  6 169 7837 5299 27% 3 1157475 383945 98%
c i  8.53 81 102  6 173 7996 5437 28% 3 1157475 383944 98%
c i  8.54 81 102  6 173 8014 5453 27% 3 1157475 383943 98%
c i  8.66 81 102  6 181 8119 5556 28% 3 1157475 383942 98%
c i  8.73 81 102  6 182 8153 5588 28% 3 1157475 383938 98%
c i  8.94 81 101  6 190 8313 5742 29% 3 1157475 383937 98%
c -  9.00 81 99  7 192 8404 5217 28% 3 1157394 383937 98%
c i  9.01 81 99  7 193 8425 5237 28% 3 1157394 383936 98%
c i  9.05 81 99  7 193 8447 5258 28% 3 1157394 383932 98%
c i  9.06 81 98  7 193 8448 5258 28% 3 1157394 383930 98%
c i  9.06 81 98  7 193 8449 5258 28% 3 1157394 383929 98%
c i  9.06 81 98  7 193 8450 5258 28% 3 1157394 383924 98%
c
c  seconds  reductions   redundant   irredundant
c         MB    restarts        trail        variables
c          level    conflicts      glue            remaining
c
c i  9.08 81 98  7 193 8458 5265 28% 3 1157394 383922 98%
c i  9.18 81 95  7 204 8652 5453 27% 3 1157394 383918 98%
c i  9.29 81 94  7 207 8724 5523 27% 3 1157394 383917 98%
c i  9.39 81 94  7 210 8798 5592 27% 3 1157394 383916 98%
c i  9.51 81 92  7 229 8903 5693 27% 3 1157394 383915 98%
c i  9.56 81 91  7 252 8962 5747 27% 3 1157394 383914 98%
c i  9.66 81 91  7 267 9001 5779 27% 3 1157394 383912 98%
c i  9.69 81 89  7 267 9084 5858 26% 3 1157394 383911 98%
c i  9.71 81 89  7 267 9109 5882 26% 3 1157394 383910 98%
c i  9.74 81 89  7 267 9142 5913 26% 3 1157394 383909 98%
c i  9.74 81 88  7 267 9154 5924 26% 3 1157394 383908 98%
c i  9.74 81 88  7 267 9155 5924 26% 3 1157394 383902 98%
c i  9.75 81 88  7 267 9178 5941 26% 3 1157394 383901 98%
c i  9.76 81 87  7 267 9264 6023 26% 3 1157394 383900 98%
c i  9.80 81 87  7 267 9324 6080 26% 3 1157394 383899 98%
c i  9.90 81 83  7 273 9657 6388 25% 3 1157394 383898 98%
c i  9.90 81 83  7 273 9660 6390 25% 3 1157394 383897 98%
c i  9.92 81 85  7 273 9787 6501 26% 3 1157394 383895 98%
c i  9.93 81 85  7 273 9799 6507 26% 3 1157394 383892 98%
c i  9.96 81 85  7 277 9841 6548 26% 3 1157394 383891 98%
c
c  seconds  reductions   redundant   irredundant
c         MB    restarts        trail        variables
c          level    conflicts      glue            remaining
c
c i 10.05 81 84  7 285 9947 6651 26% 3 1157394 383890 98%
c i 10.07 81 84  7 285 9999 6697 26% 3 1157394 383889 98%
c W 10.40 81 84  7 285 10011 6696 26% 3 1157214 383889 98%
c i 10.42 81 84  7 285 10024 6709 26% 3 1157214 383884 98%
c i 10.52 81 84  7 289 10108 6790 26% 3 1157214 383882 98%
c i 10.59 81 82  7 311 10238 6909 26% 3 1157214 383881 98%
c i 10.65 81 80  7 320 10392 7048 25% 3 1157214 383880 98%
c d 11.00 87 75  7 347 10801 7321 24% 3 1156970 383755 98%
c d 11.07 87 75  7 347 10801 7320 24% 3 1156700 383642 98%
c 3 11.26 87 75  7 347 10801 15164 24% 3 1156700 383642 98%
c t 11.30 87 75  7 347 10801 15157 24% 3 1155627 383496 98%
c f 11.80 90 75  7 347 10801 183188 24% 3 1155600 382447 97%
c u 11.97 90 75  7 347 10801 184040 24% 3 1155600 382447 97%
c v 12.04 90 75  7 347 10801 184104 24% 3 1155600 382447 97%
c w 12.65 90 75  7 347 10801 188742 24% 3 1155154 382170 97%
c d 12.76 90 75  7 347 10801 183131 24% 3 1145053 376986 96%
c d 12.85 91 75  7 347 10801 183095 24% 3 1144696 376810 96%
c i 12.86 91 75  7 347 10801 183095 24% 3 1144696 376810 96%
c - 12.91 91 75  8 347 10805 14419 24% 3 1140530 376810 96%
c i 13.08 91 74  8 379 10932 14537 24% 3 1140530 376809 96%
c
c  seconds  reductions     redundant   irredundant
c         MB    restarts          trail        variables
c          level     conflicts       glue            remaining
c
c } 13.11 91 73  8 381 10953 14557 23% 3 1140530 376809 96%
c [ 13.11 91 215  8 381 10953 14557 50% 6 1140530 376809 96%
c i 13.20 91 213  8 381 11016 14618 50% 6 1140530 376807 96%
c i 13.87 91 180  8 381 11702 15270 55% 6 1140530 376806 96%
c i 14.00 91 172  8 381 11925 15480 56% 6 1140530 376802 96%
c i 14.83 92 160  8 383 13162 16603 66% 8 1140530 376801 96%
c - 15.22 92 165  9 383 13508 7480 67% 10 1140508 376801 96%
c i 15.33 92 168  9 383 13562 7526 67% 10 1140508 376800 96%
c ] 16.81 92 201  9 383 14452 8384 62% 22 1140508 376800 96%
c { 16.81 92 73  9 383 14452 8384 23% 3 1140508 376800 96%
c i 16.92 92 73  9 402 14523 8440 23% 3 1140508 376799 96%
c i 17.00 92 72  9 402 14559 8475 23% 3 1140508 376798 96%
c i 17.08 92 73  9 416 14615 8530 23% 3 1140508 376797 96%
c i 17.19 92 74  9 427 14682 8591 23% 3 1140508 376795 96%
c i 17.21 92 74  9 427 14729 8634 23% 3 1140508 376794 96%
c i 17.24 92 73  9 427 14892 8793 23% 3 1140508 376793 96%
c i 17.26 92 72  9 427 14952 8842 23% 3 1140508 376792 96%
c i 17.29 92 73  9 427 14965 8853 23% 3 1140508 376791 96%
c i 17.32 92 72  9 436 14989 8875 23% 3 1140508 376790 96%
c a 17.53 92 72  9 445 15012 8892 23% 3 1140294 376733 96%
c
c  seconds  reductions    redundant   irredundant
c         MB    restarts         trail        variables
c          level     conflicts      glue            remaining
c
c O 17.53 92 72  9 445 15013 8893 23% 3 1140294 376733 96%
c i 17.74 92 72  9 467 15308 9167 24% 3 1140294 376732 96%
c i 17.98 92 71  9 535 15517 9366 23% 3 1140294 376731 96%
c i 18.22 92 71  9 570 15815 9653 23% 3 1140294 376728 96%
c i 18.30 92 72  9 570 15930 9756 24% 3 1140294 376726 96%
c i 18.32 92 72  9 570 15950 9775 24% 3 1140294 376724 96%
c i 18.38 92 73  9 570 16019 9833 24% 3 1140294 376723 96%
c i 18.38 92 73  9 570 16030 9838 24% 3 1140294 376722 96%
c i 18.38 92 73  9 570 16032 9839 24% 3 1140294 376720 96%
c i 18.38 92 73  9 570 16033 9839 24% 3 1140294 376719 96%
c i 18.53 92 73  9 572 16360 10136 24% 3 1140294 376717 96%
c i 18.55 92 73  9 572 16418 10185 24% 3 1140294 376712 96%
c - 18.63 92 73 10 581 16509 9030 24% 3 1140229 376712 96%
c i 19.04 92 72 10 616 16852 9350 24% 3 1140229 376711 96%
c i 19.21 92 72 10 636 16963 9458 24% 3 1140229 376710 96%
c i 19.22 92 71 10 640 16984 9476 24% 3 1140229 376708 96%
c i 19.25 92 71 10 640 17096 9586 24% 3 1140229 376707 96%
c i 19.29 92 70 10 640 17233 9706 24% 3 1140229 376705 96%
c i 19.41 92 69 10 645 17334 9800 24% 3 1140229 376703 96%
c i 19.52 92 69 10 650 17415 9879 24% 3 1140229 376702 96%
c
c  seconds  reductions    redundant   irredundant
c         MB    restarts         trail        variables
c          level     conflicts      glue            remaining
c
c i 19.62 92 69 10 660 17492 9954 24% 3 1140229 376701 96%
c i 19.69 92 69 10 674 17528 9989 24% 3 1140229 376700 96%
c i 19.71 92 69 10 679 17548 10007 24% 3 1140229 376699 96%
c i 19.80 92 69 10 702 17634 10086 23% 3 1140229 376698 96%
c i 19.88 92 69 10 703 17677 10126 24% 3 1140229 376696 96%
c i 19.90 92 69 10 703 17759 10204 24% 3 1140229 376695 96%
c i 19.90 92 70 10 703 17775 10219 24% 3 1140229 376693 96%
c 2 20.00 92 71 10 703 18001 10424 26% 3 1136254 375885 96%
c s 20.12 92 71 10 703 18001 10424 26% 3 1133476 375769 96%
c e 23.22 88 71 10 703 18001 10424 26% 3 380525 55650 14%
c s 23.41 88 71 10 703 18001 10424 26% 3 380007 55650 14%
c e 23.50 88 71 10 703 18001 10424 26% 3 378180 55197 14%
c i 23.61 91 71 10 726 18127 1826 26% 3 378180 55196 14%
c i 23.84 92 69 10 840 19175 2766 26% 3 378180 55195 14%
c - 24.15 66 66 11 959 19811 3172 26% 3 377540 55195 14%
c i 24.38 66 65 11 1038 20174 3514 26% 3 377540 55194 14%
c B 24.51 66 62 11 1062 21014 4245 25% 3 377532 55194 14%
c d 24.64 66 60 11 1091 21601 4709 24% 3 377169 55068 14%
c d 24.65 66 60 11 1091 21601 4709 24% 3 377140 55061 14%
c 3 24.82 66 60 11 1091 21601 51273 24% 3 377126 55061 14%
c
c  seconds  reductions      redundant  irredundant
c         MB     restarts          trail       variables
c          level      conflicts       glue          remaining
c
c t 24.87 66 60 11 1091 21601 51025 24% 3 373695 55008 14%
c f 24.91 67 60 11 1091 21601 70359 24% 3 373604 54920 14%
c u 24.99 68 60 11 1091 21601 70119 24% 3 373377 54920 14%
c v 25.03 68 60 11 1091 21601 70013 24% 3 373377 54920 14%
c w 25.27 73 60 11 1091 21601 72067 24% 3 373210 54920 14%
c d 25.30 73 60 11 1091 21601 71533 24% 3 372542 54657 14%
c d 25.32 73 60 11 1091 21601 71531 24% 3 372534 54655 14%
c i 25.34 73 60 11 1091 21601 71531 24% 3 372534 54655 14%
c - 25.80 73 56 12 1280 23412 7594 22% 3 372109 54655 14%
c } 26.06 73 55 12 1390 24452 8528 22% 3 372108 54655 14%
c [ 26.06 73 201 12 1390 24452 8528 62% 22 372108 54655 14%
c - 26.56 73 184 13 1392 27312 9219 63% 15 372108 54655 14%
c W 26.82 73 181 13 1392 28015 9811 64% 14 372108 54655 14%
c - 27.42 74 154 14 1395 31513 10791 65% 11 372106 54655 14%
c d 27.54 74 154 14 1395 31601 10765 66% 11 371953 54598 14%
c d 27.56 74 154 14 1395 31601 10763 66% 11 371935 54593 14%
c 3 27.74 66 154 14 1395 31601 60867 66% 11 371919 54593 14%
c t 27.80 66 154 14 1395 31601 60573 66% 11 370769 54586 14%
c f 27.84 67 154 14 1395 31601 80449 66% 11 370747 54565 14%
c u 27.93 68 154 14 1395 31601 80569 66% 11 370747 54565 14%
c
c  seconds   reductions      redundant   irredundant
c         MB      restarts          trail        variables
c           level      conflicts        glue          remaining
c
c v 27.97 68 154 14 1395 31601 80399 66% 11 370747 54565 14%
c w 28.24 73 154 14 1395 31601 81485 66% 11 368503 54564 14%
c d 28.28 73 154 14 1395 31601 80993 66% 11 368029 54350 14%
c d 28.31 73 154 14 1395 31601 80988 66% 11 368023 54348 14%
c i 28.32 73 154 14 1395 31601 80988 66% 11 368023 54348 14%
c - 29.23 73 133 15 1396 36013 21078 64% 9 367951 54348 14%
c I 29.23 73 133 15 1396 36017 21082 64% 9 367951 54348 14%
c ] 30.12 74 126 15 1398 38129 23079 62% 9 367950 54348 14%
c { 30.12 74 55 15 1398 38129 23079 22% 3 367950 54348 14%
c - 30.90 74 50 16 1657 40814 13095 21% 3 367948 54348 14%
c 2 31.85 74 48 16 2104 43002 15135 21% 4 367910 54346 14%
c s 31.88 74 48 16 2104 43002 15135 21% 4 367090 54346 14%
c e 32.02 62 48 16 2104 43002 15135 21% 4 364701 53334 14%
c 2 32.02 62 48 16 2104 43002 15135 21% 4 364667 53334 14%
c s 32.05 62 48 16 2104 43002 15135 21% 4 364262 53334 14%
c e 32.09 62 48 16 2104 43002 15135 21% 4 363859 53223 14%
c d 32.64 66 47 16 2277 44101 14631 21% 4 363693 53153 14%
c d 32.67 66 47 16 2277 44101 14625 21% 4 363685 53151 14%
c 3 32.95 66 47 16 2277 44101 65437 21% 4 363658 53151 14%
c t 33.02 66 47 16 2277 44101 65374 21% 4 363216 53149 14%
c
c  seconds  reductions      redundant  irredundant
c         MB     restarts          trail       variables
c          level      conflicts       glue          remaining
c
c f 33.07 67 47 16 2277 44101 85305 21% 4 363207 53144 14%
c u 33.24 68 47 16 2277 44101 85114 21% 4 363207 53144 14%
c v 33.30 68 47 16 2277 44101 84942 21% 4 363207 53144 14%
c w 33.68 72 47 16 2277 44101 85206 21% 4 361876 53143 14%
c d 33.73 72 47 16 2277 44101 85039 21% 4 361679 53061 14%
c d 33.76 72 47 16 2277 44101 85029 21% 4 361667 53057 14%
c i 33.78 72 47 16 2277 44101 85029 21% 4 361667 53057 14%
c B 34.12 73 47 16 2360 45018 85837 21% 4 361667 53057 14%
c - 34.67 74 46 17 2526 45915 15972 21% 4 361650 53057 14%
c i 34.84 74 47 17 2528 46840 16816 22% 4 361648 53056 14%
c i 34.88 74 47 17 2533 47043 16992 22% 4 361648 53054 14%
c i 35.34 74 46 17 2735 47894 17784 22% 4 361648 53051 14%
c - 36.60 74 46 18 3179 51315 17695 23% 4 361632 53051 14%
c W 38.16 74 43 18 3682 55019 21116 22% 4 361336 53051 14%
c } 38.17 74 43 18 3684 55129 21206 22% 4 361336 53051 14%
c [ 38.17 74 126 18 3684 55129 21206 62% 9 361336 53051 14%
c - 38.65 74 121 19 3685 57016 20431 64% 10 361336 53051 14%
c d 39.65 74 120 19 3686 59101 22196 67% 13 361120 52972 13%
c d 39.67 74 120 19 3686 59101 22170 67% 13 360914 52908 13%
c 3 39.91 66 120 19 3686 59101 74655 67% 13 360895 52908 13%
c
c  seconds   reductions      redundant   irredundant
c         MB      restarts          trail        variables
c           level      conflicts        glue          remaining
c
c t 39.96 66 120 19 3686 59101 74617 67% 13 360696 52908 13%
c f 40.00 68 120 19 3686 59101 97430 67% 13 360696 52892 13%
c u 40.13 69 120 19 3686 59101 97546 67% 13 360696 52892 13%
c v 40.19 69 120 19 3686 59101 97416 67% 13 360696 52892 13%
c w 40.46 73 120 19 3686 59101 97636 67% 13 358306 52891 13%
c d 40.50 73 120 19 3686 59101 97355 67% 13 357998 52760 13%
c d 40.53 73 120 19 3686 59101 97353 67% 13 357996 52759 13%
c i 40.54 73 120 19 3686 59101 97353 67% 13 357996 52759 13%
c - 41.72 74 117 20 3689 63016 29119 61% 13 357951 52759 13%
c # 42.45 74 112 20 3690 66021 31938 58% 13 357951 52759 13%
c - 43.39 74 110 21 3692 69317 23105 59% 12 357949 52759 13%
c ] 45.36 74 98 21 3696 75160 27357 53% 11 357948 52759 13%
c { 45.36 74 43 21 3696 75160 27357 22% 4 357948 52759 13%
c - 45.60 75 43 22 3786 75918 24247 22% 4 357948 52759 13%
c i 45.62 75 43 22 3786 76011 24329 22% 4 357948 52758 13%
c d 45.90 75 43 22 3874 76601 24804 22% 4 357888 52729 13%
c d 45.92 75 43 22 3874 76601 24804 22% 4 357870 52724 13%
c 3 46.20 66 43 22 3874 76601 80565 22% 4 357852 52724 13%
c t 46.25 66 43 22 3874 76601 80433 22% 4 357641 52723 13%
c f 46.31 68 43 22 3874 76601 113987 22% 4 357637 52710 13%
c
c  seconds  reductions      redundant   irredundant
c         MB     restarts           trail       variables
c          level      conflicts        glue          remaining
c
c u 46.49 69 43 22 3874 76601 113670 22% 4 357637 52710 13%
c v 46.56 69 43 22 3874 76601 113638 22% 4 357637 52710 13%
c w 46.86 74 43 22 3874 76601 113812 22% 4 355568 52708 13%
c d 46.90 74 43 22 3874 76601 113153 22% 4 355194 52544 13%
c d 46.92 74 43 22 3874 76601 113136 22% 4 355177 52538 13%
c i 46.94 74 43 22 3874 76601 113136 22% 4 355177 52538 13%
c B 47.77 74 42 22 4104 78023 114425 22% 4 355139 52538 13%
c 2 48.94 75 42 22 4429 80502 116677 22% 4 355074 52534 13%
c s 48.97 75 42 22 4429 80502 116677 22% 4 354108 52534 13%
c e 49.19 62 42 22 4429 80502 116677 22% 4 349597 50993 13%
c 2 49.19 62 42 22 4429 80502 116677 22% 4 349585 50991 13%
c s 49.23 62 42 22 4429 80502 116677 22% 4 349201 50991 13%
c e 49.29 62 42 22 4429 80502 116677 22% 4 348955 50941 13%
c - 50.89 69 41 23 4880 82818 27366 22% 4 348955 50941 13%
c - 54.01 70 41 24 5805 90018 30134 24% 4 348954 50941 13%
c W 54.74 70 41 24 6032 91027 31085 24% 4 348954 50941 13%
c d 57.99 71 41 24 7054 96602 35750 24% 4 348748 50850 13%
c d 58.01 71 41 24 7054 96602 35740 24% 4 348725 50843 13%
c 3 58.35 66 41 24 7054 96602 88653 24% 4 348701 50843 13%
c t 58.40 66 41 24 7054 96602 88521 24% 4 348171 50840 13%
c
c  seconds  reductions      redundant   irredundant
c         MB     restarts           trail       variables
c          level      conflicts        glue          remaining
c
c f 58.48 68 41 24 7054 96602 129504 24% 4 348165 50814 13%
c u 58.72 70 41 24 7054 96602 129062 24% 4 348165 50814 13%
c v 58.79 70 41 24 7054 96602 128912 24% 4 348165 50814 13%
c w 59.11 74 41 24 7054 96602 130478 24% 4 345848 50811 13%
c d 59.15 74 41 24 7054 96602 129745 24% 4 345400 50599 13%
c d 59.18 74 41 24 7054 96602 129743 24% 4 345392 50596 13%
c i 59.19 74 41 24 7054 96602 129743 24% 4 345392 50596 13%
c - 59.87 75 40 25 7214 97518 33256 24% 4 345325 50596 13%
c i 60.31 75 40 25 7358 98082 33778 24% 4 345325 50595 13%
c } 62.18 75 40 25 8010 101163 36609 24% 4 345325 50595 13%
c [ 62.18 75 98 25 8010 101163 36609 53% 11 345325 50595 13%
c F 63.25 75 95 25 8012 105029 40088 55% 11 345316 50595 13%
c - 63.38 75 95 26 8013 105318 34262 54% 11 345316 50595 13%
c - 65.53 75 96 27 8016 113418 34051 54% 11 345316 50595 13%
c d 67.58 75 86 27 8021 119104 38460 48% 12 345279 50577 13%
c 3 67.99 66 86 27 8021 119104 94348 48% 12 345270 50577 13%
c t 68.05 66 86 27 8021 119104 94258 48% 12 344955 50577 13%
c f 68.16 69 86 27 8021 119104 158892 48% 12 344955 50497 13%
c u 68.41 71 86 27 8021 119104 158163 48% 12 344955 50497 13%
c v 68.51 71 86 27 8021 119104 158012 48% 12 344955 50497 13%
c
c  seconds  reductions       redundant    irredundant
c         MB     restarts            trail        variables
c          level      conflicts          glue          remaining
c
c w 68.81 75 86 27 8021 119104 159240 48% 12 342762 50496 13%
c d 68.86 75 86 27 8021 119104 158151 48% 12 342259 50291 13%
c d 68.88 75 86 27 8021 119104 158147 48% 12 342248 50288 13%
c i 68.90 75 86 27 8021 119104 158147 48% 12 342248 50288 13%
c B 69.27 75 85 27 8022 120034 159005 48% 12 342248 50288 13%
c - 69.80 75 87 28 8022 121818 60425 50% 12 342083 50288 13%
c 2 73.89 76 93 28 8024 130502 68111 54% 12 342036 50288 13%
c s 73.92 76 93 28 8024 130502 68111 54% 12 340869 50288 13%
c e 74.05 62 93 28 8024 130502 68111 54% 12 338418 49206 13%
c 2 74.05 62 93 28 8024 130502 68111 54% 12 338400 49205 13%
c s 74.07 62 93 28 8024 130502 68111 54% 12 338086 49205 13%
c e 74.12 62 93 28 8024 130502 68111 54% 12 337243 48981 12%
c - 74.23 66 93 29 8024 130519 51411 54% 12 337243 48981 12%
c W 76.71 67 97 29 8026 136036 56461 54% 13 337243 48981 12%
c - 78.86 67 95 30 8029 139519 37275 53% 14 337243 48981 12%
c ] 78.88 67 95 30 8029 139553 37308 53% 14 337243 48981 12%
c { 78.88 67 40 30 8029 139553 37308 24% 4 337243 48981 12%
c d 80.85 68 40 30 8530 144106 41015 25% 4 337155 48942 12%
c d 80.87 68 40 30 8530 144106 40962 25% 4 337145 48937 12%
c 3 81.47 66 40 30 8530 144106 97508 25% 4 337124 48937 12%
c
c  seconds  reductions       redundant  irredundant
c         MB     restarts           trail       variables
c          level      conflicts        glue          remaining
c
c t 81.55 66 40 30 8530 144106 96897 25% 4 336640 48936 12%
c f 81.66 68 40 30 8530 144106 139040 25% 4 336637 48913 12%
c f 81.68 68 40 30 8530 144106 138996 25% 4 336468 48913 12%
c u 82.12 70 40 30 8530 144106 138377 25% 4 336468 48913 12%
c v 82.25 70 40 30 8530 144106 138096 25% 4 336468 48913 12%
c w 82.65 74 40 30 8530 144106 138250 25% 4 334214 48913 12%
c d 82.71 74 40 30 8530 144106 137480 25% 4 333780 48721 12%
c d 82.74 74 40 30 8530 144106 137477 25% 4 333775 48720 12%
c i 82.76 74 40 30 8530 144106 137477 25% 4 333775 48720 12%
c - 85.60 75 39 31 9383 148819 40811 25% 4 333718 48720 12%
c O 88.43 75 39 31 10301 153038 44720 25% 5 333718 48720 12%
c - 91.29 75 38 32 11041 158420 44904 25% 5 333717 48720 12%
c - 97.33 75 38 33 12480 168320 48977 25% 5 333717 48720 12%
c B 99.16 75 38 33 12951 171039 51467 26% 5 333716 48720 12%
c d 99.69 75 38 33 13073 171606 51089 26% 5 333571 48648 12%
c d 99.71 75 38 33 13073 171606 50991 26% 5 333518 48630 12%
c 3 100.24 66 38 33 13073 171606 114820 26% 5 333496 48630 12%
c t 100.29 66 38 33 13073 171606 114672 26% 5 333039 48630 12%
c f 100.40 69 38 33 13073 171606 167983 26% 5 333039 48609 12%
c u 100.85 70 38 33 13073 171606 167163 26% 5 333039 48609 12%
c
c  seconds   reductions        redundant   irredundant
c          MB     restarts             trail       variables
c           level       conflicts         glue          remaining
c
c v 100.96 71 38 33 13073 171606 166806 26% 5 333039 48609 12%
c w 101.30 75 38 33 13073 171606 167201 26% 5 331254 48607 12%
c d 101.34 75 38 33 13073 171606 165514 26% 5 330695 48380 12%
c d 101.37 75 38 33 13073 171606 165511 26% 5 330626 48377 12%
c i 101.38 75 38 33 13073 171606 165511 26% 5 330626 48377 12%
c } 104.68 76 37 33 13836 176556 170018 26% 5 330624 48377 12%
c [ 104.68 76 95 33 13836 176556 170018 53% 14 330624 48377 12%
c - 105.56 76 94 34 13837 178521 76371 54% 14 330537 48377 12%
c - 109.83 76 88 35 13843 189022 66500 55% 13 330535 48377 12%
c W 110.44 64 88 35 13843 190040 67323 55% 13 330535 48377 12%
c 2 111.69 66 86 35 13845 193006 69980 55% 13 330431 48375 12%
c s 111.71 66 86 35 13845 193006 69980 55% 13 328778 48375 12%
c e 111.86 66 86 35 13845 193006 69980 55% 13 325227 46954 12%
c 2 111.86 66 86 35 13845 193006 69980 55% 13 325197 46953 12%
c s 111.90 66 86 35 13845 193006 69980 55% 13 324853 46953 12%
c e 111.93 66 86 35 13845 193006 69980 55% 13 324613 46892 12%
c - 115.33 67 82 36 13849 199822 51314 53% 13 324611 46892 12%
c i 115.48 67 81 36 13849 200429 51753 53% 13 324611 46891 12%
c d 115.93 67 81 36 13850 201606 52589 52% 13 324576 46874 12%
c d 115.95 67 81 36 13850 201606 52589 52% 13 324573 46873 12%
c
c  seconds   reductions        redundant    irredundant
c          MB     restarts             trail        variables
c           level       conflicts          glue          remaining
c
c 3 116.56 66 81 36 13850 201606 119110 52% 13 324532 46873 12%
c t 116.64 66 81 36 13850 201606 118177 52% 13 323995 46873 12%
c f 116.79 70 81 36 13850 201606 211397 52% 13 323995 46830 12%
c u 117.23 72 81 36 13850 201606 210121 52% 13 323995 46830 12%
c v 117.38 72 81 36 13850 201606 209897 52% 13 323995 46830 12%
c w 117.76 76 81 36 13850 201606 211860 52% 13 322139 46830 12%
c d 117.80 76 81 36 13850 201606 210867 52% 13 321756 46659 12%
c d 117.83 76 81 36 13850 201606 210814 52% 13 321737 46654 12%
c i 117.84 76 81 36 13850 201606 210814 52% 13 321737 46654 12%
c I 122.26 76 75 36 13851 210041 218792 49% 13 321735 46654 12%
c - 122.60 76 75 37 13852 210922 70559 49% 13 321646 46654 12%
c - 127.31 65 68 38 13858 222322 60705 46% 13 321646 46654 12%
c B 130.84 66 64 38 13864 231042 68598 45% 12 321645 46654 12%
c - 132.50 67 64 39 13864 234022 58609 45% 12 321645 46654 12%
c d 132.57 67 64 39 13864 234106 58656 45% 12 321623 46644 12%
c 3 133.29 66 64 39 13864 234106 128068 45% 12 321607 46644 12%
c t 133.38 66 64 39 13864 234106 126586 45% 12 320973 46644 12%
c f 133.52 70 64 39 13864 234106 189167 45% 12 320973 46611 12%
c u 134.13 72 64 39 13864 234106 188245 45% 12 320807 46611 12%
c v 134.29 73 64 39 13864 234106 187974 45% 12 320807 46611 12%
c
c  seconds   reductions        redundant    irredundant
c          MB     restarts             trail        variables
c           level       conflicts          glue          remaining
c
c w 134.69 75 64 39 13864 234106 190058 45% 12 318930 46608 12%
c d 134.73 75 64 39 13864 234106 189424 45% 12 318584 46440 12%
c d 134.75 75 64 39 13864 234106 189421 45% 12 318578 46438 12%
c i 134.77 76 64 39 13864 234106 189421 45% 12 318578 46438 12%
c ] 135.51 76 64 39 13865 235342 190616 45% 12 318578 46438 12%
c { 135.51 76 37 39 13865 235342 190616 26% 5 318578 46438 12%
c - 142.81 76 37 40 15978 246023 67623 26% 5 318497 46438 12%
c W 147.46 67 36 40 17306 253046 74143 26% 5 318495 46438 12%
c - 150.61 68 36 41 18128 258324 67592 25% 5 318494 46438 12%
c 2 156.75 69 35 41 19660 268008 76574 25% 6 318452 46438 12%
c s 156.77 69 35 41 19660 268008 76574 25% 6 317199 46438 12%
c e 156.90 69 35 41 19660 268008 76574 25% 6 314728 45504 12%
c 2 156.90 69 35 41 19660 268008 76574 25% 6 314719 45504 12%
c s 156.93 69 35 41 19660 268008 76574 25% 6 314385 45504 12%
c e 156.97 69 35 41 19660 268008 76574 25% 6 314136 45457 12%
c d 157.77 69 35 41 19856 269107 72213 25% 6 314027 45407 12%
c d 157.80 69 35 41 19856 269107 72209 25% 6 314020 45404 12%
c 3 158.61 67 35 41 19856 269107 145969 25% 6 314010 45404 12%
c t 158.68 67 35 41 19856 269107 145361 25% 6 313530 45404 12%
c f 158.85 70 35 41 19856 269107 223740 25% 6 313530 45377 12%
c
c  seconds   reductions        redundant   irredundant
c          MB     restarts             trail       variables
c           level       conflicts         glue          remaining
c
c u 159.60 72 35 41 19856 269107 222684 25% 6 313530 45377 12%
c v 159.79 73 35 41 19856 269107 222830 25% 6 313530 45377 12%
c w 160.16 76 35 41 19856 269107 223634 25% 6 311222 45377 12%
c d 160.22 77 35 41 19856 269107 223022 25% 6 310906 45211 12%
c d 160.26 77 35 41 19856 269107 223014 25% 6 310902 45210 12%
c i 160.29 77 35 41 19856 269107 223014 25% 6 310902 45210 12%
c - 162.20 77 35 42 20233 270924 68358 25% 6 310801 45210 12%
c # 165.45 66 35 42 20935 276047 73045 25% 6 310801 45210 12%
c - 170.49 67 35 43 22204 283824 69653 25% 6 310800 45210 12%
c } 171.52 67 34 43 22497 285346 71096 25% 6 310800 45210 12%
c [ 171.52 67 64 43 22497 285346 71096 45% 12 310800 45210 12%
c - 176.98 68 60 44 22503 297024 70510 43% 12 310800 45210 12%
c B 178.51 68 59 44 22506 300049 73043 43% 12 310800 45210 12%
c d 181.31 68 57 44 22510 306607 78402 42% 12 310781 45199 12%
c 3 182.21 67 57 44 22510 306607 155329 42% 12 310777 45199 12%
c t 182.28 67 57 44 22510 306607 154390 42% 12 310326 45199 12%
c f 182.50 72 57 44 22510 306607 259993 42% 12 310326 45182 12%
c u 183.35 74 57 44 22510 306607 257552 42% 12 310278 45182 12%
c v 183.60 74 57 44 22510 306607 257175 42% 12 310278 45182 12%
c w 184.07 77 57 44 22510 306607 258891 42% 12 308395 45181 12%
c
c  seconds   reductions        redundant    irredundant
c          MB     restarts             trail        variables
c           level       conflicts          glue          remaining
c
c d 184.12 77 57 44 22510 306607 256077 42% 12 307887 45031 11%
c i 184.17 77 57 44 22510 306607 256077 42% 12 307887 45031 11%
c - 185.77 77 56 45 22511 310524 81936 41% 12 307845 45031 11%
c i 187.57 63 54 45 22511 314748 85208 41% 12 307845 44943 11%
c i 187.57 63 54 45 22511 314757 85212 41% 12 307845 44669 11%
c i 187.57 63 54 45 22511 314762 85215 41% 12 307845 44163 11%
c ] 187.57 63 54 45 22511 314764 85215 41% 12 307845 43843 11%
c 0 187.57 63 34 45 22511 314764 85215 25% 6 307845 43843 11%
c
c ---- [ result ] ------------------------------------------------------------
c
s UNSATISFIABLE
c
c ---- [ profiling ] ---------------------------------------------------------
c
c         155.34   82.82 %  search
c          86.20   45.95 %  focused
c          69.15   36.86 %  stable
c          31.91   17.01 %  simplify
c          25.16   13.41 %  probe
c          12.56    6.70 %  vivify
c           6.15    3.28 %  ternary
c           5.00    2.67 %  eliminate
c           2.86    1.53 %  substitute
c           2.70    1.44 %  failed
c           1.09    0.58 %  reduce
c           0.94    0.50 %  walking
c           0.88    0.47 %  transitive
c           0.81    0.43 %  autarky
c           0.32    0.17 %  parse
c =============================================
c         187.57  100.00 %  total
c
c ---- [ statistics ] --------------------------------------------------------
c
c conflicts:                           314764             1678.09 per second
c decisions:                          1516672                4.82 per conflict
c propagations:                    1055994736          5629795    per second
c reductions:                              45             6995    interval
c rephased:                                24            13115    interval
c restarts:                             22511               13.98 interval
c
c ---- [ resources ] ---------------------------------------------------------
c
c maximum-resident-set-size:        124080128 bytes        118 MB
c process-time:                          3m 7s             187.57 seconds
c
c ---- [ shutting down ] -----------------------------------------------------
c
c exit 20

SAT solver OK

VALID
c array.sh: end:      Tue Feb 16 22:33:26 CET 2021
